NAME: instance_1493
TYPE: TSP
DIMENSION: 20
EDGE_WEIGHT_TYPE: EUC_2D
NODE_COORD_SECTION
0 84.44 71.28
1 63.68 62.32
2 50.74 54.93
3 8.50 8.26
4 87.32 54.93
5 85.80 48.43
6 21.54 56.90
7 37.33 1.31
8 67.72 84.06
9 88.21 28.18
10 54.40 45.00
11 83.84 43.36
12 70.91 48.54
13 36.53 0.20
14 86.42 5.28
15 14.91 71.44
16 40.79 48.61
17 21.63 28.23
18 76.53 71.03
19 6.31 81.04
EOF
